language ESSENCE' 1.0
$ Generated from file data/MMLIB50/J5099_5.mm
$ Best heuristic solution: makespan = 40, combo = serial/LFT/LST/shortest_duration/min_resource
$ Pruned 12 mode(s) by time-window test (horizon = 40)
$ activity,mode,start (1-based indexing)
$ 1,1,0
$ 2,1,0
$ 3,1,0
$ 4,1,0
$ 5,1,0
$ 6,1,0
$ 7,2,4
$ 8,2,3
$ 9,1,0
$ 10,1,4
$ 11,1,4
$ 12,2,8
$ 13,1,8
$ 14,1,4
$ 15,1,8
$ 16,1,4
$ 17,1,12
$ 18,2,13
$ 19,2,8
$ 20,1,13
$ 21,2,13
$ 22,2,8
$ 23,1,13
$ 24,2,13
$ 25,1,14
$ 26,1,13
$ 27,1,13
$ 28,1,18
$ 29,1,20
$ 30,3,18
$ 31,2,15
$ 32,1,18
$ 33,1,18
$ 34,1,26
$ 35,2,20
$ 36,1,27
$ 37,1,18
$ 38,2,22
$ 39,1,28
$ 40,1,30
$ 41,2,31
$ 42,1,28
$ 43,1,33
$ 44,1,35
$ 45,2,33
$ 46,1,33
$ 47,3,27
$ 48,1,37
$ 49,1,37
$ 50,1,33
$ 51,1,30
$ 52,1,40
letting jobs = 52
letting lowerBound = 36
letting horizon = 39
letting resourcesRenew = 2
letting resourcesNonrenew = 2
letting successors = [[2, 3, 4, 5, 6, 9], [16, 14, 11, 10, 7], [14, 10, 7], [8, 7], [22, 19, 15, 14, 13, 12], [22, 19, 17, 16, 14, 12], [22, 19, 15, 13, 12], [22, 19, 13, 12], [19, 15, 12], [21, 20, 19, 13], [27, 26, 25, 24, 23, 21, 20, 18], [27, 26, 24, 23, 21, 20], [26, 25, 24, 23, 17], [26, 25, 24, 23, 20], [27, 25, 18], [35, 32, 31, 30, 28, 24], [18], [37, 35, 33, 32, 31, 30, 29, 28], [32, 31, 30, 29, 25], [37, 35, 33, 32, 30, 29, 28], [37, 33, 32, 31, 29, 28], [33, 32, 31, 30, 29, 28], [38, 37, 35, 29], [37, 33, 29], [37, 35, 28], [38, 30, 29], [38, 35, 29], [47, 38, 36, 34], [47, 36, 34], [47, 42, 39, 36], [47, 42, 40, 38], [47, 34], [47, 40, 38], [51, 42, 40, 39], [51, 40, 39], [51, 41, 40], [51, 41, 40], [51, 39], [41], [50, 49, 46, 43], [50, 45, 43], [50, 49, 46, 44], [44], [48], [49], [48], [48], [52], [52], [52], [52], []]
letting durations = [[0], [4], [2, 6, 7], [3, 4, 7], [2, 8, 10], [1, 4, 7], [2, 4], [4, 4, 8], [2, 8, 9], [1, 3, 4], [5, 7, 8], [1, 5, 5], [4, 5, 8], [1, 2, 10], [2, 4, 6], [2, 5, 6], [1, 3, 7], [1, 1, 6], [2, 6, 9], [5, 6, 9], [1, 2, 7], [1, 1, 4], [4, 5, 9], [3, 3, 4], [2, 4, 7], [5, 6], [7, 9, 10], [4, 5, 7], [6, 9, 10], [1, 5, 9], [1, 4, 10], [2, 5, 6], [4, 5, 10], [2, 6], [1, 3, 10], [3, 5], [4, 6, 7], [2, 6, 10], [3, 7], [3, 8], [2, 2, 6], [5, 9, 10], [2], [2, 3, 5], [3, 4, 5], [1, 6, 7], [2, 3, 3], [3, 4, 4], [2], [6, 8, 9], [5, 6, 7], [0]]
letting resourceUsage = [[[0, 0, 0, 0]], [[0, 9, 0, 4]], [[0, 8, 8, 0], [0, 8, 0, 8], [0, 8, 0, 7]], [[4, 0, 6, 0], [0, 5, 0, 5], [0, 4, 0, 4]], [[8, 0, 0, 7], [0, 7, 4, 0], [4, 0, 4, 0]], [[0, 9, 0, 5], [0, 6, 0, 5], [4, 0, 0, 5]], [[4, 0, 0, 9], [3, 0, 3, 0]], [[0, 10, 0, 5], [3, 0, 0, 5], [1, 0, 9, 0]], [[0, 8, 0, 9], [0, 4, 0, 8], [0, 4, 0, 7]], [[0, 8, 0, 5], [0, 4, 9, 0], [0, 3, 9, 0]], [[0, 5, 0, 2], [0, 4, 6, 0], [0, 1, 0, 1]], [[8, 0, 4, 0], [4, 0, 0, 2], [0, 9, 3, 0]], [[8, 0, 6, 0], [7, 0, 6, 0], [7, 0, 0, 8]], [[0, 9, 4, 0], [4, 0, 4, 0], [0, 5, 0, 5]], [[0, 3, 7, 0], [4, 0, 5, 0], [4, 0, 1, 0]], [[0, 9, 4, 0], [0, 5, 0, 3], [5, 0, 2, 0]], [[0, 8, 0, 8], [0, 6, 5, 0], [4, 0, 0, 7]], [[5, 0, 0, 8], [0, 4, 6, 0], [5, 0, 4, 0]], [[0, 5, 0, 6], [6, 0, 3, 0], [4, 0, 1, 0]], [[7, 0, 7, 0], [0, 7, 0, 4], [0, 5, 5, 0]], [[0, 5, 7, 0], [0, 4, 0, 5], [0, 4, 4, 0]], [[7, 0, 6, 0], [0, 8, 6, 0], [0, 6, 6, 0]], [[0, 7, 0, 8], [0, 5, 0, 6], [0, 2, 0, 6]], [[8, 0, 5, 0], [7, 0, 0, 3], [6, 0, 4, 0]], [[4, 0, 0, 8], [2, 0, 0, 6], [0, 5, 0, 6]], [[0, 7, 0, 5], [0, 7, 3, 0]], [[0, 7, 7, 0], [2, 0, 6, 0], [2, 0, 0, 4]], [[7, 0, 0, 5], [6, 0, 7, 0], [6, 0, 6, 0]], [[0, 7, 9, 0], [0, 4, 0, 6], [0, 3, 0, 6]], [[10, 0, 0, 8], [0, 7, 4, 0], [0, 7, 3, 0]], [[0, 9, 9, 0], [0, 5, 0, 4], [0, 3, 9, 0]], [[9, 0, 0, 8], [0, 8, 6, 0], [0, 6, 0, 8]], [[0, 9, 5, 0], [0, 8, 3, 0], [5, 0, 3, 0]], [[0, 1, 0, 10], [7, 0, 0, 9]], [[10, 0, 7, 0], [8, 0, 5, 0], [0, 5, 0, 5]], [[0, 10, 9, 0], [7, 0, 8, 0]], [[0, 8, 7, 0], [0, 8, 0, 8], [5, 0, 0, 8]], [[0, 8, 7, 0], [8, 0, 0, 3], [5, 0, 2, 0]], [[4, 0, 7, 0], [3, 0, 5, 0]], [[6, 0, 8, 0], [4, 0, 0, 6]], [[7, 0, 6, 0], [0, 6, 0, 2], [0, 6, 0, 1]], [[0, 4, 6, 0], [5, 0, 6, 0], [5, 0, 0, 2]], [[0, 6, 0, 4]], [[7, 0, 0, 8], [0, 4, 0, 8], [6, 0, 3, 0]], [[0, 3, 0, 10], [6, 0, 1, 0], [0, 1, 0, 8]], [[0, 6, 0, 7], [0, 5, 0, 5], [0, 3, 2, 0]], [[0, 7, 0, 8], [0, 7, 0, 6], [5, 0, 0, 5]], [[0, 8, 0, 3], [4, 0, 4, 0], [4, 0, 0, 1]], [[0, 6, 5, 0]], [[0, 5, 0, 9], [0, 4, 0, 6], [1, 0, 3, 0]], [[0, 7, 0, 9], [5, 0, 5, 0], [2, 0, 4, 0]], [[0, 0, 0, 0]]]
letting resourceLimits = [31, 37, 132, 154]
$ Near-critical path lengths (shortest-mode sums): [36, 36, 35, 35, 35]
letting nearCriticalPaths = [[1, 4, 8, 13, 26, 29, 34, 39, 41, 43, 44, 48, 52], [1, 2, 11, 27, 29, 34, 39, 41, 43, 44, 48, 52], [1, 4, 8, 13, 26, 29, 36, 40, 43, 44, 48, 52], [1, 2, 11, 27, 29, 36, 40, 43, 44, 48, 52], [1, 4, 8, 13, 23, 29, 34, 39, 41, 43, 44, 48, 52]]
